\ Model PowerPlants
\ LP format - for model browsing. Use MPS format to capture full model detail.
Minimize
  8 P[0,0] + 6 P[0,1] + 10 P[0,2] + 9 P[0,3] + 9 P[1,0] + 12 P[1,1]
   + 13 P[1,2] + 7 P[1,3] + 14 P[2,0] + 9 P[2,1] + 16 P[2,2] + 5 P[2,3]
Subject To
 R0: P[0,0] + P[0,1] + P[0,2] + P[0,3] <= 35
 R1: P[1,0] + P[1,1] + P[1,2] + P[1,3] <= 50
 R2: P[2,0] + P[2,1] + P[2,2] + P[2,3] <= 40
 R3: P[0,0] + P[0,1] + P[0,2] + P[0,3] <= 35
 R4: P[1,0] + P[1,1] + P[1,2] + P[1,3] <= 50
 R5: P[2,0] + P[2,1] + P[2,2] + P[2,3] <= 40
 R6: P[0,0] + P[1,0] + P[2,0] >= 45
 R7: P[0,1] + P[1,1] + P[2,1] >= 20
 R8: P[0,2] + P[1,2] + P[2,2] >= 30
 R9: P[0,3] + P[1,3] + P[2,3] >= 30
 R10: P[0,0] + P[0,1] + P[0,2] + P[0,3] <= 35
 R11: P[1,0] + P[1,1] + P[1,2] + P[1,3] <= 50
 R12: P[2,0] + P[2,1] + P[2,2] + P[2,3] <= 40
 R13: P[0,0] + P[1,0] + P[2,0] >= 45
 R14: P[0,1] + P[1,1] + P[2,1] >= 20
 R15: P[0,2] + P[1,2] + P[2,2] >= 30
 R16: P[0,3] + P[1,3] + P[2,3] >= 30
Bounds
End
